73 300 195 199 178 115 102 141 132 176 196 155 149 111 113 175 159 189 123 144 118 168 150 113 114 177 118 111 196 197 101 197 118 162 195 163 143 163 103 176 138 166 197 153 177 109 127 102 198 116 146 183 184 197 196 164 139 113 142 134 176 143 130 195 171 191 157 113 153 126 155 191 192 151 144 